(set-logic QF_LRA)
(declare-fun X0 () Real )
(declare-fun Y0 () Real )
(declare-fun X1 () Real )
(declare-fun Y1 () Real )
(declare-fun X2 () Real )
(declare-fun Y2 () Real )
(declare-fun X3 () Real )
(declare-fun Y3 () Real )
(declare-fun X4 () Real )
(declare-fun Y4 () Real )
(declare-fun X5 () Real )
(declare-fun Y5 () Real )
(declare-fun X6 () Real )
(declare-fun Y6 () Real )
(declare-fun X7 () Real )
(declare-fun Y7 () Real )
(declare-fun X8 () Real )
(declare-fun Y8 () Real )
(declare-fun X9 () Real )
(declare-fun Y9 () Real )
(declare-fun X10 () Real )
(declare-fun Y10 () Real )
(declare-fun X11 () Real )
(declare-fun Y11 () Real )
(declare-fun X12 () Real )
(declare-fun Y12 () Real )
(declare-fun X13 () Real )
(declare-fun Y13 () Real )
(declare-fun X14 () Real )
(declare-fun Y14 () Real )
(declare-fun Z () Real )
(declare-fun k () Real )
(assert (let
(( $goal (>= Z k) ))
(let
((
$phi ( and 
( or ( <= ( + X0 50 ) X1 )  ( <= ( + X1 11 ) X0 )  ( <= ( + Y0 43 ) Y1 )  ( <= ( + Y1 57 ) Y0 )  )
( or ( <= ( + X0 50 ) X2 )  ( <= ( + X2 82 ) X0 )  ( <= ( + Y0 43 ) Y2 )  ( <= ( + Y2 72 ) Y0 )  )
( or ( <= ( + X0 50 ) X3 )  ( <= ( + X3 70 ) X0 )  ( <= ( + Y0 43 ) Y3 )  ( <= ( + Y3 60 ) Y0 )  )
( or ( <= ( + X0 50 ) X4 )  ( <= ( + X4 52 ) X0 )  ( <= ( + Y0 43 ) Y4 )  ( <= ( + Y4 1 ) Y0 )  )
( or ( <= ( + X0 50 ) X5 )  ( <= ( + X5 40 ) X0 )  ( <= ( + Y0 43 ) Y5 )  ( <= ( + Y5 47 ) Y0 )  )
( or ( <= ( + X0 50 ) X6 )  ( <= ( + X6 62 ) X0 )  ( <= ( + Y0 43 ) Y6 )  ( <= ( + Y6 26 ) Y0 )  )
( or ( <= ( + X0 50 ) X7 )  ( <= ( + X7 67 ) X0 )  ( <= ( + Y0 43 ) Y7 )  ( <= ( + Y7 13 ) Y0 )  )
( or ( <= ( + X0 50 ) X8 )  ( <= ( + X8 40 ) X0 )  ( <= ( + Y0 43 ) Y8 )  ( <= ( + Y8 44 ) Y0 )  )
( or ( <= ( + X0 50 ) X9 )  ( <= ( + X9 3 ) X0 )  ( <= ( + Y0 43 ) Y9 )  ( <= ( + Y9 38 ) Y0 )  )
( or ( <= ( + X0 50 ) X10 )  ( <= ( + X10 68 ) X0 )  ( <= ( + Y0 43 ) Y10 )  ( <= ( + Y10 50 ) Y0 )  )
( or ( <= ( + X0 50 ) X11 )  ( <= ( + X11 22 ) X0 )  ( <= ( + Y0 43 ) Y11 )  ( <= ( + Y11 31 ) Y0 )  )
( or ( <= ( + X0 50 ) X12 )  ( <= ( + X12 17 ) X0 )  ( <= ( + Y0 43 ) Y12 )  ( <= ( + Y12 48 ) Y0 )  )
( or ( <= ( + X0 50 ) X13 )  ( <= ( + X13 68 ) X0 )  ( <= ( + Y0 43 ) Y13 )  ( <= ( + Y13 55 ) Y0 )  )
( or ( <= ( + X0 50 ) X14 )  ( <= ( + X14 58 ) X0 )  ( <= ( + Y0 43 ) Y14 )  ( <= ( + Y14 45 ) Y0 )  )
( or ( <= ( + X1 11 ) X2 )  ( <= ( + X2 82 ) X1 )  ( <= ( + Y1 57 ) Y2 )  ( <= ( + Y2 72 ) Y1 )  )
( or ( <= ( + X1 11 ) X3 )  ( <= ( + X3 70 ) X1 )  ( <= ( + Y1 57 ) Y3 )  ( <= ( + Y3 60 ) Y1 )  )
( or ( <= ( + X1 11 ) X4 )  ( <= ( + X4 52 ) X1 )  ( <= ( + Y1 57 ) Y4 )  ( <= ( + Y4 1 ) Y1 )  )
( or ( <= ( + X1 11 ) X5 )  ( <= ( + X5 40 ) X1 )  ( <= ( + Y1 57 ) Y5 )  ( <= ( + Y5 47 ) Y1 )  )
( or ( <= ( + X1 11 ) X6 )  ( <= ( + X6 62 ) X1 )  ( <= ( + Y1 57 ) Y6 )  ( <= ( + Y6 26 ) Y1 )  )
( or ( <= ( + X1 11 ) X7 )  ( <= ( + X7 67 ) X1 )  ( <= ( + Y1 57 ) Y7 )  ( <= ( + Y7 13 ) Y1 )  )
( or ( <= ( + X1 11 ) X8 )  ( <= ( + X8 40 ) X1 )  ( <= ( + Y1 57 ) Y8 )  ( <= ( + Y8 44 ) Y1 )  )
( or ( <= ( + X1 11 ) X9 )  ( <= ( + X9 3 ) X1 )  ( <= ( + Y1 57 ) Y9 )  ( <= ( + Y9 38 ) Y1 )  )
( or ( <= ( + X1 11 ) X10 )  ( <= ( + X10 68 ) X1 )  ( <= ( + Y1 57 ) Y10 )  ( <= ( + Y10 50 ) Y1 )  )
( or ( <= ( + X1 11 ) X11 )  ( <= ( + X11 22 ) X1 )  ( <= ( + Y1 57 ) Y11 )  ( <= ( + Y11 31 ) Y1 )  )
( or ( <= ( + X1 11 ) X12 )  ( <= ( + X12 17 ) X1 )  ( <= ( + Y1 57 ) Y12 )  ( <= ( + Y12 48 ) Y1 )  )
( or ( <= ( + X1 11 ) X13 )  ( <= ( + X13 68 ) X1 )  ( <= ( + Y1 57 ) Y13 )  ( <= ( + Y13 55 ) Y1 )  )
( or ( <= ( + X1 11 ) X14 )  ( <= ( + X14 58 ) X1 )  ( <= ( + Y1 57 ) Y14 )  ( <= ( + Y14 45 ) Y1 )  )
( or ( <= ( + X2 82 ) X3 )  ( <= ( + X3 70 ) X2 )  ( <= ( + Y2 72 ) Y3 )  ( <= ( + Y3 60 ) Y2 )  )
( or ( <= ( + X2 82 ) X4 )  ( <= ( + X4 52 ) X2 )  ( <= ( + Y2 72 ) Y4 )  ( <= ( + Y4 1 ) Y2 )  )
( or ( <= ( + X2 82 ) X5 )  ( <= ( + X5 40 ) X2 )  ( <= ( + Y2 72 ) Y5 )  ( <= ( + Y5 47 ) Y2 )  )
( or ( <= ( + X2 82 ) X6 )  ( <= ( + X6 62 ) X2 )  ( <= ( + Y2 72 ) Y6 )  ( <= ( + Y6 26 ) Y2 )  )
( or ( <= ( + X2 82 ) X7 )  ( <= ( + X7 67 ) X2 )  ( <= ( + Y2 72 ) Y7 )  ( <= ( + Y7 13 ) Y2 )  )
( or ( <= ( + X2 82 ) X8 )  ( <= ( + X8 40 ) X2 )  ( <= ( + Y2 72 ) Y8 )  ( <= ( + Y8 44 ) Y2 )  )
( or ( <= ( + X2 82 ) X9 )  ( <= ( + X9 3 ) X2 )  ( <= ( + Y2 72 ) Y9 )  ( <= ( + Y9 38 ) Y2 )  )
( or ( <= ( + X2 82 ) X10 )  ( <= ( + X10 68 ) X2 )  ( <= ( + Y2 72 ) Y10 )  ( <= ( + Y10 50 ) Y2 )  )
( or ( <= ( + X2 82 ) X11 )  ( <= ( + X11 22 ) X2 )  ( <= ( + Y2 72 ) Y11 )  ( <= ( + Y11 31 ) Y2 )  )
( or ( <= ( + X2 82 ) X12 )  ( <= ( + X12 17 ) X2 )  ( <= ( + Y2 72 ) Y12 )  ( <= ( + Y12 48 ) Y2 )  )
( or ( <= ( + X2 82 ) X13 )  ( <= ( + X13 68 ) X2 )  ( <= ( + Y2 72 ) Y13 )  ( <= ( + Y13 55 ) Y2 )  )
( or ( <= ( + X2 82 ) X14 )  ( <= ( + X14 58 ) X2 )  ( <= ( + Y2 72 ) Y14 )  ( <= ( + Y14 45 ) Y2 )  )
( or ( <= ( + X3 70 ) X4 )  ( <= ( + X4 52 ) X3 )  ( <= ( + Y3 60 ) Y4 )  ( <= ( + Y4 1 ) Y3 )  )
( or ( <= ( + X3 70 ) X5 )  ( <= ( + X5 40 ) X3 )  ( <= ( + Y3 60 ) Y5 )  ( <= ( + Y5 47 ) Y3 )  )
( or ( <= ( + X3 70 ) X6 )  ( <= ( + X6 62 ) X3 )  ( <= ( + Y3 60 ) Y6 )  ( <= ( + Y6 26 ) Y3 )  )
( or ( <= ( + X3 70 ) X7 )  ( <= ( + X7 67 ) X3 )  ( <= ( + Y3 60 ) Y7 )  ( <= ( + Y7 13 ) Y3 )  )
( or ( <= ( + X3 70 ) X8 )  ( <= ( + X8 40 ) X3 )  ( <= ( + Y3 60 ) Y8 )  ( <= ( + Y8 44 ) Y3 )  )
( or ( <= ( + X3 70 ) X9 )  ( <= ( + X9 3 ) X3 )  ( <= ( + Y3 60 ) Y9 )  ( <= ( + Y9 38 ) Y3 )  )
( or ( <= ( + X3 70 ) X10 )  ( <= ( + X10 68 ) X3 )  ( <= ( + Y3 60 ) Y10 )  ( <= ( + Y10 50 ) Y3 )  )
( or ( <= ( + X3 70 ) X11 )  ( <= ( + X11 22 ) X3 )  ( <= ( + Y3 60 ) Y11 )  ( <= ( + Y11 31 ) Y3 )  )
( or ( <= ( + X3 70 ) X12 )  ( <= ( + X12 17 ) X3 )  ( <= ( + Y3 60 ) Y12 )  ( <= ( + Y12 48 ) Y3 )  )
( or ( <= ( + X3 70 ) X13 )  ( <= ( + X13 68 ) X3 )  ( <= ( + Y3 60 ) Y13 )  ( <= ( + Y13 55 ) Y3 )  )
( or ( <= ( + X3 70 ) X14 )  ( <= ( + X14 58 ) X3 )  ( <= ( + Y3 60 ) Y14 )  ( <= ( + Y14 45 ) Y3 )  )
( or ( <= ( + X4 52 ) X5 )  ( <= ( + X5 40 ) X4 )  ( <= ( + Y4 1 ) Y5 )  ( <= ( + Y5 47 ) Y4 )  )
( or ( <= ( + X4 52 ) X6 )  ( <= ( + X6 62 ) X4 )  ( <= ( + Y4 1 ) Y6 )  ( <= ( + Y6 26 ) Y4 )  )
( or ( <= ( + X4 52 ) X7 )  ( <= ( + X7 67 ) X4 )  ( <= ( + Y4 1 ) Y7 )  ( <= ( + Y7 13 ) Y4 )  )
( or ( <= ( + X4 52 ) X8 )  ( <= ( + X8 40 ) X4 )  ( <= ( + Y4 1 ) Y8 )  ( <= ( + Y8 44 ) Y4 )  )
( or ( <= ( + X4 52 ) X9 )  ( <= ( + X9 3 ) X4 )  ( <= ( + Y4 1 ) Y9 )  ( <= ( + Y9 38 ) Y4 )  )
( or ( <= ( + X4 52 ) X10 )  ( <= ( + X10 68 ) X4 )  ( <= ( + Y4 1 ) Y10 )  ( <= ( + Y10 50 ) Y4 )  )
( or ( <= ( + X4 52 ) X11 )  ( <= ( + X11 22 ) X4 )  ( <= ( + Y4 1 ) Y11 )  ( <= ( + Y11 31 ) Y4 )  )
( or ( <= ( + X4 52 ) X12 )  ( <= ( + X12 17 ) X4 )  ( <= ( + Y4 1 ) Y12 )  ( <= ( + Y12 48 ) Y4 )  )
( or ( <= ( + X4 52 ) X13 )  ( <= ( + X13 68 ) X4 )  ( <= ( + Y4 1 ) Y13 )  ( <= ( + Y13 55 ) Y4 )  )
( or ( <= ( + X4 52 ) X14 )  ( <= ( + X14 58 ) X4 )  ( <= ( + Y4 1 ) Y14 )  ( <= ( + Y14 45 ) Y4 )  )
( or ( <= ( + X5 40 ) X6 )  ( <= ( + X6 62 ) X5 )  ( <= ( + Y5 47 ) Y6 )  ( <= ( + Y6 26 ) Y5 )  )
( or ( <= ( + X5 40 ) X7 )  ( <= ( + X7 67 ) X5 )  ( <= ( + Y5 47 ) Y7 )  ( <= ( + Y7 13 ) Y5 )  )
( or ( <= ( + X5 40 ) X8 )  ( <= ( + X8 40 ) X5 )  ( <= ( + Y5 47 ) Y8 )  ( <= ( + Y8 44 ) Y5 )  )
( or ( <= ( + X5 40 ) X9 )  ( <= ( + X9 3 ) X5 )  ( <= ( + Y5 47 ) Y9 )  ( <= ( + Y9 38 ) Y5 )  )
( or ( <= ( + X5 40 ) X10 )  ( <= ( + X10 68 ) X5 )  ( <= ( + Y5 47 ) Y10 )  ( <= ( + Y10 50 ) Y5 )  )
( or ( <= ( + X5 40 ) X11 )  ( <= ( + X11 22 ) X5 )  ( <= ( + Y5 47 ) Y11 )  ( <= ( + Y11 31 ) Y5 )  )
( or ( <= ( + X5 40 ) X12 )  ( <= ( + X12 17 ) X5 )  ( <= ( + Y5 47 ) Y12 )  ( <= ( + Y12 48 ) Y5 )  )
( or ( <= ( + X5 40 ) X13 )  ( <= ( + X13 68 ) X5 )  ( <= ( + Y5 47 ) Y13 )  ( <= ( + Y13 55 ) Y5 )  )
( or ( <= ( + X5 40 ) X14 )  ( <= ( + X14 58 ) X5 )  ( <= ( + Y5 47 ) Y14 )  ( <= ( + Y14 45 ) Y5 )  )
( or ( <= ( + X6 62 ) X7 )  ( <= ( + X7 67 ) X6 )  ( <= ( + Y6 26 ) Y7 )  ( <= ( + Y7 13 ) Y6 )  )
( or ( <= ( + X6 62 ) X8 )  ( <= ( + X8 40 ) X6 )  ( <= ( + Y6 26 ) Y8 )  ( <= ( + Y8 44 ) Y6 )  )
( or ( <= ( + X6 62 ) X9 )  ( <= ( + X9 3 ) X6 )  ( <= ( + Y6 26 ) Y9 )  ( <= ( + Y9 38 ) Y6 )  )
( or ( <= ( + X6 62 ) X10 )  ( <= ( + X10 68 ) X6 )  ( <= ( + Y6 26 ) Y10 )  ( <= ( + Y10 50 ) Y6 )  )
( or ( <= ( + X6 62 ) X11 )  ( <= ( + X11 22 ) X6 )  ( <= ( + Y6 26 ) Y11 )  ( <= ( + Y11 31 ) Y6 )  )
( or ( <= ( + X6 62 ) X12 )  ( <= ( + X12 17 ) X6 )  ( <= ( + Y6 26 ) Y12 )  ( <= ( + Y12 48 ) Y6 )  )
( or ( <= ( + X6 62 ) X13 )  ( <= ( + X13 68 ) X6 )  ( <= ( + Y6 26 ) Y13 )  ( <= ( + Y13 55 ) Y6 )  )
( or ( <= ( + X6 62 ) X14 )  ( <= ( + X14 58 ) X6 )  ( <= ( + Y6 26 ) Y14 )  ( <= ( + Y14 45 ) Y6 )  )
( or ( <= ( + X7 67 ) X8 )  ( <= ( + X8 40 ) X7 )  ( <= ( + Y7 13 ) Y8 )  ( <= ( + Y8 44 ) Y7 )  )
( or ( <= ( + X7 67 ) X9 )  ( <= ( + X9 3 ) X7 )  ( <= ( + Y7 13 ) Y9 )  ( <= ( + Y9 38 ) Y7 )  )
( or ( <= ( + X7 67 ) X10 )  ( <= ( + X10 68 ) X7 )  ( <= ( + Y7 13 ) Y10 )  ( <= ( + Y10 50 ) Y7 )  )
( or ( <= ( + X7 67 ) X11 )  ( <= ( + X11 22 ) X7 )  ( <= ( + Y7 13 ) Y11 )  ( <= ( + Y11 31 ) Y7 )  )
( or ( <= ( + X7 67 ) X12 )  ( <= ( + X12 17 ) X7 )  ( <= ( + Y7 13 ) Y12 )  ( <= ( + Y12 48 ) Y7 )  )
( or ( <= ( + X7 67 ) X13 )  ( <= ( + X13 68 ) X7 )  ( <= ( + Y7 13 ) Y13 )  ( <= ( + Y13 55 ) Y7 )  )
( or ( <= ( + X7 67 ) X14 )  ( <= ( + X14 58 ) X7 )  ( <= ( + Y7 13 ) Y14 )  ( <= ( + Y14 45 ) Y7 )  )
( or ( <= ( + X8 40 ) X9 )  ( <= ( + X9 3 ) X8 )  ( <= ( + Y8 44 ) Y9 )  ( <= ( + Y9 38 ) Y8 )  )
( or ( <= ( + X8 40 ) X10 )  ( <= ( + X10 68 ) X8 )  ( <= ( + Y8 44 ) Y10 )  ( <= ( + Y10 50 ) Y8 )  )
( or ( <= ( + X8 40 ) X11 )  ( <= ( + X11 22 ) X8 )  ( <= ( + Y8 44 ) Y11 )  ( <= ( + Y11 31 ) Y8 )  )
( or ( <= ( + X8 40 ) X12 )  ( <= ( + X12 17 ) X8 )  ( <= ( + Y8 44 ) Y12 )  ( <= ( + Y12 48 ) Y8 )  )
( or ( <= ( + X8 40 ) X13 )  ( <= ( + X13 68 ) X8 )  ( <= ( + Y8 44 ) Y13 )  ( <= ( + Y13 55 ) Y8 )  )
( or ( <= ( + X8 40 ) X14 )  ( <= ( + X14 58 ) X8 )  ( <= ( + Y8 44 ) Y14 )  ( <= ( + Y14 45 ) Y8 )  )
( or ( <= ( + X9 3 ) X10 )  ( <= ( + X10 68 ) X9 )  ( <= ( + Y9 38 ) Y10 )  ( <= ( + Y10 50 ) Y9 )  )
( or ( <= ( + X9 3 ) X11 )  ( <= ( + X11 22 ) X9 )  ( <= ( + Y9 38 ) Y11 )  ( <= ( + Y11 31 ) Y9 )  )
( or ( <= ( + X9 3 ) X12 )  ( <= ( + X12 17 ) X9 )  ( <= ( + Y9 38 ) Y12 )  ( <= ( + Y12 48 ) Y9 )  )
( or ( <= ( + X9 3 ) X13 )  ( <= ( + X13 68 ) X9 )  ( <= ( + Y9 38 ) Y13 )  ( <= ( + Y13 55 ) Y9 )  )
( or ( <= ( + X9 3 ) X14 )  ( <= ( + X14 58 ) X9 )  ( <= ( + Y9 38 ) Y14 )  ( <= ( + Y14 45 ) Y9 )  )
( or ( <= ( + X10 68 ) X11 )  ( <= ( + X11 22 ) X10 )  ( <= ( + Y10 50 ) Y11 )  ( <= ( + Y11 31 ) Y10 )  )
( or ( <= ( + X10 68 ) X12 )  ( <= ( + X12 17 ) X10 )  ( <= ( + Y10 50 ) Y12 )  ( <= ( + Y12 48 ) Y10 )  )
( or ( <= ( + X10 68 ) X13 )  ( <= ( + X13 68 ) X10 )  ( <= ( + Y10 50 ) Y13 )  ( <= ( + Y13 55 ) Y10 )  )
( or ( <= ( + X10 68 ) X14 )  ( <= ( + X14 58 ) X10 )  ( <= ( + Y10 50 ) Y14 )  ( <= ( + Y14 45 ) Y10 )  )
( or ( <= ( + X11 22 ) X12 )  ( <= ( + X12 17 ) X11 )  ( <= ( + Y11 31 ) Y12 )  ( <= ( + Y12 48 ) Y11 )  )
( or ( <= ( + X11 22 ) X13 )  ( <= ( + X13 68 ) X11 )  ( <= ( + Y11 31 ) Y13 )  ( <= ( + Y13 55 ) Y11 )  )
( or ( <= ( + X11 22 ) X14 )  ( <= ( + X14 58 ) X11 )  ( <= ( + Y11 31 ) Y14 )  ( <= ( + Y14 45 ) Y11 )  )
( or ( <= ( + X12 17 ) X13 )  ( <= ( + X13 68 ) X12 )  ( <= ( + Y12 48 ) Y13 )  ( <= ( + Y13 55 ) Y12 )  )
( or ( <= ( + X12 17 ) X14 )  ( <= ( + X14 58 ) X12 )  ( <= ( + Y12 48 ) Y14 )  ( <= ( + Y14 45 ) Y12 )  )
( or ( <= ( + X13 68 ) X14 )  ( <= ( + X14 58 ) X13 )  ( <= ( + Y13 55 ) Y14 )  ( <= ( + Y14 45 ) Y13 )  )
( >= X0 0)
( <= ( + X0 50) Z)
( >= Y0 0)
( <= ( + Y0 43 ) 100)
( >= X1 0)
( <= ( + X1 11) Z)
( >= Y1 0)
( <= ( + Y1 57 ) 100)
( >= X2 0)
( <= ( + X2 82) Z)
( >= Y2 0)
( <= ( + Y2 72 ) 100)
( >= X3 0)
( <= ( + X3 70) Z)
( >= Y3 0)
( <= ( + Y3 60 ) 100)
( >= X4 0)
( <= ( + X4 52) Z)
( >= Y4 0)
( <= ( + Y4 1 ) 100)
( >= X5 0)
( <= ( + X5 40) Z)
( >= Y5 0)
( <= ( + Y5 47 ) 100)
( >= X6 0)
( <= ( + X6 62) Z)
( >= Y6 0)
( <= ( + Y6 26 ) 100)
( >= X7 0)
( <= ( + X7 67) Z)
( >= Y7 0)
( <= ( + Y7 13 ) 100)
( >= X8 0)
( <= ( + X8 40) Z)
( >= Y8 0)
( <= ( + Y8 44 ) 100)
( >= X9 0)
( <= ( + X9 3) Z)
( >= Y9 0)
( <= ( + Y9 38 ) 100)
( >= X10 0)
( <= ( + X10 68) Z)
( >= Y10 0)
( <= ( + Y10 50 ) 100)
( >= X11 0)
( <= ( + X11 22) Z)
( >= Y11 0)
( <= ( + Y11 31 ) 100)
( >= X12 0)
( <= ( + X12 17) Z)
( >= Y12 0)
( <= ( + Y12 48 ) 100)
( >= X13 0)
( <= ( + X13 68) Z)
( >= Y13 0)
( <= ( + Y13 55 ) 100)
( >= X14 0)
( <= ( + X14 58) Z)
( >= Y14 0)
( <= ( + Y14 45 ) 100)
) )
)(=> $phi $goal))))